p cnf 88 279
-3 1 0
-3 -2 0
-1 2 3 0
-6 4 0
-6 5 0
-4 -5 6 0
-8 -6 0
-8 7 0
6 -7 8 0
7 -9 -10 0
-7 9 -10 0
7 9 10 0
-7 -9 10 0
12 10 0
12 -11 0
-10 11 -12 0
12 13 0
-12 13 0
14 -8 0
14 -13 0
8 13 -14 0
-3 -14 -15 0
3 14 -15 0
-3 14 15 0
3 -14 15 0
18 4 0
18 17 0
-4 -17 -18 0
19 8 0
19 18 0
-8 -18 -19 0
16 19 -20 0
-16 -19 -20 0
16 -19 20 0
-16 19 20 0
-23 16 0
-23 -22 0
-16 22 23 0
21 -23 -24 0
-21 23 -24 0
21 23 24 0
-21 -23 24 0
-25 -4 0
-25 -22 0
4 22 25 0
-24 -25 -26 0
24 25 -26 0
-24 25 26 0
24 -25 26 0
27 -20 0
27 -26 0
20 26 -27 0
-15 27 -28 0
15 -27 -28 0
-15 -27 28 0
15 27 28 0
-2 4 -29 0
2 -4 -29 0
-2 -4 29 0
2 4 29 0
31 -30 0
31 -17 0
30 17 -31 0
32 29 0
32 -31 0
-29 31 -32 0
34 -16 0
34 -33 0
16 33 -34 0
-35 34 0
-35 -18 0
-34 18 35 0
-7 -29 -36 0
7 29 -36 0
-7 29 36 0
7 -29 36 0
37 29 0
37 -36 0
-29 36 -37 0
-35 37 -38 0
35 -37 -38 0
-35 -37 38 0
35 37 38 0
32 -38 -39 0
-32 38 -39 0
32 38 39 0
-32 -38 39 0
40 -11 0
40 -5 0
11 5 -40 0
-11 -16 -41 0
11 16 -41 0
-11 16 41 0
11 -16 41 0
41 42 -43 0
-41 -42 -43 0
41 -42 43 0
-41 42 43 0
44 40 0
44 43 0
-40 -43 -44 0
-45 -36 0
-45 -8 0
36 8 45 0
46 -44 0
46 -45 0
44 45 -46 0
47 39 0
47 46 0
-39 -46 -47 0
48 2 0
48 -23 0
-2 23 -48 0
49 4 0
49 48 0
-4 -48 -49 0
50 8 0
50 16 0
-8 -16 -50 0
51 -21 0
51 50 0
21 -50 -51 0
-52 -51 0
-52 31 0
51 -31 52 0
-53 -49 0
-53 52 0
49 -52 53 0
-47 -53 -54 0
47 53 -54 0
-47 53 54 0
47 -53 54 0
-21 -22 -55 0
21 22 -55 0
-21 22 55 0
21 -22 55 0
-56 55 0
-56 11 0
-55 -11 56 0
-57 -56 0
-57 -6 0
56 6 57 0
57 51 -58 0
-57 -51 -58 0
57 -51 58 0
-57 51 58 0
41 -2 -59 0
-41 2 -59 0
41 2 59 0
-41 -2 59 0
60 -2 0
60 59 0
2 -59 -60 0
-58 -60 -61 0
58 60 -61 0
-58 60 61 0
58 -60 61 0
62 25 0
62 41 0
-25 -41 -62 0
12 -63 -64 0
-12 63 -64 0
12 63 64 0
-12 -63 64 0
65 64 0
65 12 0
-64 -12 -65 0
59 -56 -66 0
-59 56 -66 0
59 56 66 0
-59 -56 66 0
-67 -65 0
-67 -66 0
65 66 67 0
-68 10 0
-68 -6 0
-10 6 68 0
-69 -67 0
-69 -68 0
67 68 69 0
70 62 0
70 69 0
-62 -69 -70 0
-71 -61 0
-71 -70 0
61 70 71 0
72 16 0
72 18 0
-16 -18 -72 0
71 72 -73 0
-71 -72 -73 0
71 -72 73 0
-71 72 73 0
-54 -73 -74 0
54 73 -74 0
-54 73 74 0
54 -73 74 0
63 4 -76 0
-63 -4 -76 0
63 -4 76 0
-63 4 76 0
-77 75 0
-77 76 0
-75 -76 77 0
78 74 0
78 -77 0
-74 77 -78 0
-50 56 -79 0
50 -56 -79 0
-50 -56 79 0
50 56 79 0
80 78 0
80 79 0
-78 -79 -80 0
-81 -28 0
-81 -80 0
28 80 81 0
-82 -1 0
-82 -50 0
1 50 82 0
48 16 -83 0
-48 -16 -83 0
48 -16 83 0
-48 16 83 0
84 1 0
84 42 0
-1 -42 -84 0
-59 84 -85 0
59 -84 -85 0
-59 -84 85 0
59 84 85 0
-83 -85 -86 0
83 85 -86 0
-83 85 86 0
83 -85 86 0
82 86 -87 0
-82 -86 -87 0
82 -86 87 0
-82 86 87 0
88 81 0
88 87 0
-81 -87 -88 0
-24 -28 -30 16 -78 -6 0
-47 -41 0
84 74 -71 34 0
-35 69 -38 11 74 0
41 59 0
-59 2 46 -86 -13 0
49 77 0
-26 52 6 -21 -74 0
-58 -39 0
-15 -16 76 -85 -65 0
-66 62 68 -32 0
29 -52 66 -3 0
58 4 20 0
80 81 -37 0
-10 -44 67 75 50 0
-33 88 0
-39 -16 -62 70 -12 0
-84 -65 -7 -77 76 0
-28 -11 -66 -4 0
-2 -54 -44 0
56 -74 -85 0
20 45 -29 -81 67 88 0
-67 29 79 -30 -60 0
13 -55 0
-81 -21 -48 -38 0
39 -77 0
11 8 -69 0
-49 50 32 35 -61 0
8 21 -24 0
70 47 0
30 43 0
-88 -66 -53 -61 20 8 0
64 20 -25 0
-40 -23 0
45 88 -57 83 22 0
-47 5 67 -54 0
88 0
